JulietBench/Juliet_Based_Patch_Bench/linux/CWE-189-Numeric-Errors/CVE_2007_4997_04045f98e0457aba7d4e6736f37eed189c48a5f7/solverieee80211_rx_Snippet.smt2
; benchmark generated from python API
(set-info :status unknown)
(declare-fun R () (_ BitVec 32))
(declare-fun rdi () (_ BitVec 64))
(declare-fun rsi () (_ BitVec 64))
(assert
 (let (($x883 (= (_ bv4294967295 32) R)))
 (let ((?x6 ((_ extract 31 0) rdi)))
 (let (($x13 (bvsge (_ bv9 32) ?x6)))
 (let (($x884 (and $x13 $x883)))
 (let (($x43 (bvslt (_ bv9 32) ?x6)))
 (let ((?x8 ((_ extract 31 0) rsi)))
 (let (($x46 (bvslt ?x6 ?x8)))
 (let (($x888 (and $x46 $x43 $x883)))
 (let (($x880 (= R ?x6)))
 (let (($x622 (bvsge ?x6 ?x8)))
 (let ((?x47 (bvadd ?x8 (_ bv2 32))))
 (let (($x58 (bvsle ?x6 ?x47)))
 (let (($x887 (and $x58 $x622 $x43 $x880)))
 (let (($x623 (= R ?x8)))
 (let (($x447 (bvsgt ?x6 ?x47)))
 (let (($x886 (and $x447 $x622 $x43 $x623)))
 (let (($x889 (or $x886 $x887 $x888 $x884)))
 (let (($x892 (not $x889)))
 (let (($x881 (and $x58 $x43 $x880)))
 (let (($x879 (and $x447 $x43 $x623)))
 (let (($x885 (or $x879 $x881 $x884)))
 (let (($x891 (not $x885)))
 (let (($x893 (and $x891 $x892)))
 (let (($x890 (and $x885 $x889)))
 (let (($x894 (or $x890 $x893)))
 (not $x894)))))))))))))))))))))))))))
(check-sat)
